5 5
5 1 5 18 1 5 3 5 1 4 3 4 2 13 5 6 4 4 5 1 2 5 17 2 2 4 10 3 12 3 3 3 2 4 1 8
8 4 2 6 4 8 5 15 1 7 2 2 5 5 18 3 4 10 1 19 5 19 4 5 7 2 5 1 13 3 10 4 3 8 4 13 2 16 5 18 1 2 11 2 1 17 3 16 1 5 20
4 1 4 7 2 1 15 4 15 3 3 6 4 19 5 20 1 1 9
5 1 4 15 3 4 16 3 9 5 16 4 3 5 2 3 4 14 1 16 4 5 9 2 16 4 15 1 17 2 2 19 3 15
4 4 5 12 2 18 1 18 4 13 2 5 5 2 5 4 4 13 2 7 3 8 1 14 5 1 15 2 12 4 3 5 16 3 9